c Generated map
c Size: 9 * 9, weights in range: 1 to 10, walls: True, with ratio 0.1
c dim 3 of 7
c
p sp 81 115
c graph contains 81 nodes and 115 arcs
c
a 1 10 3
a 10 1 3
a 1 2 2
a 2 1 2
a 2 11 10
a 11 2 10
a 2 3 7
a 3 2 7
a 3 12 9
a 12 3 9
a 3 4 5
a 4 3 5
a 4 13 7
a 13 4 7
a 4 5 2
a 5 4 2
a 5 6 4
a 6 5 4
a 6 15 2
a 15 6 2
a 6 7 9
a 7 6 9
a 7 16 6
a 16 7 6
a 10 11 7
a 11 10 7
a 11 20 4
a 20 11 4
a 11 12 8
a 12 11 8
a 12 21 3
a 21 12 3
a 12 13 2
a 13 12 2
a 13 22 5
a 22 13 5
a 15 24 9
a 24 15 9
a 15 16 8
a 16 15 8
a 16 25 6
a 25 16 6
a 16 17 5
a 17 16 5
a 17 26 6
a 26 17 6
a 20 29 9
a 29 20 9
a 20 21 7
a 21 20 7
a 21 30 9
a 30 21 9
a 21 22 10
a 22 21 10
a 22 31 1
a 31 22 1
a 22 23 5
a 23 22 5
a 23 32 8
a 32 23 8
a 23 24 4
a 24 23 4
a 24 33 9
a 33 24 9
a 24 25 3
a 25 24 3
a 25 34 4
a 34 25 4
a 25 26 4
a 26 25 4
a 26 27 7
a 27 26 7
a 27 36 10
a 36 27 10
a 28 37 4
a 37 28 4
a 28 29 6
a 29 28 6
a 29 38 6
a 38 29 6
a 29 30 6
a 30 29 6
a 30 39 1
a 39 30 1
a 30 31 1
a 31 30 1
a 31 40 8
a 40 31 8
a 31 32 8
a 32 31 8
a 32 41 7
a 41 32 7
a 32 33 6
a 33 32 6
a 33 42 10
a 42 33 10
a 33 34 7
a 34 33 7
a 34 43 1
a 43 34 1
a 36 45 8
a 45 36 8
a 37 46 6
a 46 37 6
a 37 38 6
a 38 37 6
a 38 47 9
a 47 38 9
a 38 39 8
a 39 38 8
a 39 48 8
a 48 39 8
a 39 40 2
a 40 39 2
a 40 49 4
a 49 40 4
a 40 41 3
a 41 40 3
a 41 50 7
a 50 41 7
a 41 42 5
a 42 41 5
a 42 51 1
a 51 42 1
a 42 43 9
a 43 42 9
a 43 44 9
a 44 43 9
a 44 53 5
a 53 44 5
a 44 45 8
a 45 44 8
a 45 54 5
a 54 45 5
a 46 55 5
a 55 46 5
a 46 47 6
a 47 46 6
a 47 56 6
a 56 47 6
a 47 48 10
a 48 47 10
a 48 57 1
a 57 48 1
a 48 49 3
a 49 48 3
a 49 58 10
a 58 49 10
a 49 50 8
a 50 49 8
a 50 51 4
a 51 50 4
a 51 60 5
a 60 51 5
a 53 62 1
a 62 53 1
a 53 54 7
a 54 53 7
a 54 63 1
a 63 54 1
a 55 64 7
a 64 55 7
a 55 56 7
a 56 55 7
a 56 65 5
a 65 56 5
a 56 57 6
a 57 56 6
a 57 58 1
a 58 57 1
a 58 67 5
a 67 58 5
a 60 69 8
a 69 60 8
a 60 61 10
a 61 60 10
a 61 70 6
a 70 61 6
a 61 62 9
a 62 61 9
a 62 71 9
a 71 62 9
a 62 63 6
a 63 62 6
a 63 72 8
a 72 63 8
a 64 73 1
a 73 64 1
a 64 65 6
a 65 64 6
a 65 74 7
a 74 65 7
a 67 76 4
a 76 67 4
a 67 68 6
a 68 67 6
a 68 77 3
a 77 68 3
a 68 69 5
a 69 68 5
a 69 78 7
a 78 69 7
a 69 70 3
a 70 69 3
a 70 79 7
a 79 70 7
a 70 71 3
a 71 70 3
a 71 80 3
a 80 71 3
a 71 72 5
a 72 71 5
a 72 81 8
a 81 72 8
a 73 74 9
a 74 73 9
a 74 75 2
a 75 74 2
a 75 76 9
a 76 75 9
a 76 77 5
a 77 76 5
a 77 78 1
a 78 77 1
a 78 79 10
a 79 78 10
a 79 80 4
a 80 79 4
a 80 81 4
a 81 80 4
